120
1000
200
199
199
199
198
198
198
197
196
196
196
193
193
193
193
193
193
192
192
192
192
191
190
190
190
190
189
188
188
188
187
187
186
184
184
183
182
182
182
182
181
181
181
180
180
180
180
179
179
179
179
178
177
177
177
176
176
176
175
175
175
174
174
173
173
172
171
171
170
170
169
169
169
169
169
168
167
167
166
166
166
165
165
163
162
162
161
161
161
160
160
160
160
160
159
159
158
158
158
157
157
157
157
156
156
155
154
154
153
153
153
153
152
152
151
151
151
151
150
150
